(declare-const a Real)
(declare-const b Real)
(declare-const c Real)
(assert (<= (+ (pow a 2) (pow b 2) (pow c 2) (pow (+ a b c) 2)) 4))
(assert (>= a 0))
(assert (>= b 0))
(assert (>= c 0))
(assert (not (<= (+ (* (pow (* (pow (* (pow (+ a b) 2) (pow (+ b c) 2)) (+ 1 (* a c))) (pow (* (pow (+ b c) 2) (+ 1 (* a b)) (+ a c)) (+ a c)) (pow (+ 1 (* b c)) (* (pow (+ a b) 2) (pow (+ a c) 2)))) (pow (+ 1 a c (* a c) (* (pow (+ a b) 2) (pow (+ a c) 2))) -1)) (+ -1 (* -1 a) (* -1 c) (* -1 a c) (* -1 (pow (+ a b) 2) (pow (+ a c) 2)))) (* 3 (pow (+ a b) 2) (pow (+ a c) 2) (pow (+ b c) 2))) 0)))
(check-sat)
(get-model)
(exit)